local_stuff/sygus_stuff/sygus_inv_oai/sygus_cvc5/cvc_output_2_5min/66.c.out
STDOUT:
(
(define-fun inv-f ((x Int) (y Int) (x_0 Int) (x_1 Int) (x_2 Int) (y_0 Int) (y_1 Int) (y_2 Int)) Bool (or (not (= x x_1)) (not (= y y_1)) (not (>= x_1 101)) (not (>= y_1 100))))
)
